% Auto-generated by scripts/generate_dzn.py
% problem_type   = regex
% instance       = regex_34
% source_json    = instances_json/1_medium_blowup/regex_34.json
% blowup         = 7.068965517241379
% representation = NFA

mode = 1;

var_count = 23;
n_constraints = 2;
Q = 15;
S = 2;
q0 = [1, 1];
F = [{14}, {15}];
weights = [6, 5, 8, 9, 8, 8, 10, 9, 7, 6, 2, 4, 1, 9, 4, 10, 5, 4, 1, 5, 3, 6, 4];
d_dfa = array3d(1..2, 1..15, 1..2, [
  % k = 1
    0, 0,
    0, 0,
    0, 0,
    0, 0,
    0, 0,
    0, 0,
    0, 0,
    0, 0,
    0, 0,
    0, 0,
    0, 0,
    0, 0,
    0, 0,
    0, 0,
    0, 0,

  % k = 2
    0, 0,
    0, 0,
    0, 0,
    0, 0,
    0, 0,
    0, 0,
    0, 0,
    0, 0,
    0, 0,
    0, 0,
    0, 0,
    0, 0,
    0, 0,
    0, 0,
    0, 0
]);
d_nfa = array3d(1..2, 1..15, 1..2, [
  % k = 1
    {1, 2}, {1},
    {3}, {},
    {}, {4},
    {5}, {5},
    {6}, {6},
    {7}, {7},
    {8}, {8},
    {9}, {9},
    {10}, {10},
    {11}, {11},
    {12}, {12},
    {13}, {13},
    {14}, {14},
    {}, {},
    {}, {},

  % k = 2
    {1}, {2},
    {2}, {3},
    {3}, {4},
    {4}, {5},
    {5}, {6},
    {6}, {7},
    {7}, {8},
    {8}, {9},
    {9}, {10},
    {10}, {11},
    {11}, {12},
    {12}, {13},
    {13}, {14},
    {14}, {15},
    {15}, {}
]);
